c SAT Generator for power-law distributed variable frequencies
c -g u -v 20 -c 91 -k 3 -p 2.750000 -b 3.200000 -f /home/schmidt/Devel/ni-kop-sat/data/ensemble/ruf20-91/ruf20-91-939 -u 1 -U 1 -s 1947334216
p cnf 20 91
8 9 20 0
4 9 -14 0
9 10 20 0
-8 10 -16 0
-8 -14 -16 0
1 11 13 0
4 -11 20 0
13 14 19 0
-4 -5 -11 0
11 12 17 0
8 -13 -20 0
15 -17 -20 0
-2 -3 8 0
-1 -19 -20 0
-8 -13 -14 0
-5 -11 17 0
1 9 20 0
-7 14 -20 0
-2 4 15 0
3 5 16 0
-6 -18 -19 0
3 -6 -7 0
-4 -15 20 0
-5 7 11 0
1 3 4 0
-2 14 16 0
-2 7 11 0
3 -14 -15 0
-7 -17 20 0
1 -9 17 0
-8 9 14 0
-1 -3 10 0
2 5 -12 0
4 -8 -9 0
-8 -13 -15 0
6 10 15 0
-2 -4 -10 0
-8 11 -16 0
8 -9 13 0
-10 -12 -20 0
-4 10 16 0
-9 12 -13 0
-1 6 16 0
9 -15 -19 0
2 6 10 0
2 5 -19 0
-3 4 -18 0
-6 -10 12 0
-1 8 15 0
2 4 12 0
2 7 -13 0
2 -7 -14 0
-3 -6 7 0
-12 13 -20 0
1 -10 -15 0
1 16 -17 0
5 -9 -18 0
1 5 -7 0
-7 -17 -19 0
-1 -8 -20 0
8 -9 -14 0
10 12 17 0
3 6 -13 0
-7 11 -14 0
3 11 13 0
-4 -10 -20 0
-4 -11 -15 0
-2 7 9 0
-9 -11 15 0
-4 8 -16 0
-2 3 -16 0
-2 8 12 0
1 -7 8 0
-6 -12 15 0
1 -9 -15 0
7 18 19 0
-4 -6 16 0
7 9 14 0
-5 -15 -17 0
5 17 18 0
1 5 11 0
-9 12 -17 0
-8 9 -14 0
-1 -9 -20 0
-6 -12 19 0
2 4 -8 0
-1 5 -18 0
-5 15 16 0
6 9 18 0
4 5 15 0
7 -9 -17 0
